9
2147483647 81 9 72 70 35 74 92 69 
81 2147483647 86 10 60 7 79 52 76 
9 86 2147483647 15 20 81 97 59 79 
72 10 15 2147483647 19 74 33 78 34 
70 60 20 19 2147483647 29 94 69 44 
35 7 81 74 29 2147483647 26 74 58 
74 79 97 33 94 26 2147483647 10 26 
92 52 59 78 69 74 10 2147483647 74 
69 76 79 34 44 58 26 74 2147483647 
